n_res = 4;
rc = [ 13, 11, 17, 17 ];
n_tasks = 30;
d = [ 1, 10, 4, 4, 3, 4, 9, 10, 2, 7, 1, 1, 2, 6, 10, 9, 7, 5, 1, 2, 6, 3, 2, 6, 8, 3, 3, 9, 8, 2 ];
rr = [| 1, 0, 0, 0, 9, 0, 1, 3, 3, 0, 8, 0, 9, 0, 10, 0, 2, 0, 0, 3, 0, 4, 8, 0, 1, 1, 0, 9, 9, 0
      | 0, 9, 0, 0, 0, 8, 0, 0, 4, 3, 0, 0, 0, 3, 0, 0, 0, 0, 0, 6, 0, 0, 9, 0, 4, 6, 2, 0, 0, 0
      | 0, 4, 9, 0, 0, 5, 4, 0, 5, 1, 1, 3, 5, 0, 5, 8, 5, 3, 10, 3, 6, 3, 0, 7, 7, 0, 0, 0, 5, 0
      | 0, 4, 9, 7, 0, 10, 0, 0, 0, 9, 7, 0, 0, 1, 9, 0, 0, 10, 8, 0, 6, 0, 7, 0, 0, 0, 0, 5, 5, 7 |];
suc = [ { 2 }, 
        { 3 }, 
        { 4 }, 
        { 5 }, 
        { 6 }, 
        { 7 }, 
        { 8 }, 
        { 9 }, 
        { 10 }, 
        { 11 }, 
        { 12 }, 
        { 13 }, 
        { 14 }, 
        { 15 }, 
        { 16 }, 
        { 17 }, 
        { 18 }, 
        { 19 }, 
        { 20 }, 
        { 21 }, 
        { 22 }, 
        { 23 }, 
        { 24 }, 
        { 25 }, 
        { 26 }, 
        { 27 }, 
        { 28 }, 
        { 29 }, 
        { 30 }, 
        {  }]; 
